c uprop, v00.0, 
c reading from data/prog551.c.cnf
c done reading: 0.003393
p cnf 121 517
-68 -88 0
-72 -88 0
68 72 88 0
68 72 -95 0
-68 -72 -95 0
-68 72 95 0
68 -72 95 0
-76 88 0
-76 -78 0
76 78 -88 0
78 -84 -88 0
-78 -84 88 0
78 84 88 0
-78 84 -88 0
76 -87 0
-87 -89 0
-76 87 89 0
-76 89 -92 0
76 -89 -92 0
76 89 92 0
-76 -89 92 0
87 -93 0
-93 -97 0
-87 93 97 0
-71 -87 97 0
-71 87 -97 0
71 87 97 0
71 -87 -97 0
-67 93 0
-67 -74 0
67 74 -93 0
-66 74 -93 0
-66 -74 93 0
66 74 93 0
66 -74 -93 0
-64 67 0
-64 -81 0
64 -67 81 0
-63 -67 81 0
-63 67 -81 0
63 67 81 0
63 -67 -81 0
-62 64 0
-62 -85 0
62 -64 85 0
-61 -64 85 0
-61 64 -85 0
61 64 85 0
61 -64 -85 0
-60 72 0
-60 68 0
60 -68 -72 0
-59 -68 -72 0
-59 68 72 0
59 68 -72 0
59 -68 72 0
58 -72 -78 0
58 -60 -78 0
58 -60 -72 0
-58 72 78 0
-58 60 78 0
-58 60 72 0
-57 -58 78 0
-57 -58 72 0
-57 -58 60 0
57 58 -78 0
57 58 -72 0
57 58 -60 0
57 -60 -72 -78 0
-57 60 72 78 0
56 -78 -89 0
56 -58 -89 0
56 -58 -78 0
-56 78 89 0
-56 58 89 0
-56 58 78 0
-55 -56 89 0
-55 -56 78 0
-55 -56 58 0
55 56 -89 0
55 56 -78 0
55 56 -58 0
55 -58 -78 -89 0
-55 58 78 89 0
54 -89 -97 0
54 -56 -97 0
54 -56 -89 0
-54 89 97 0
-54 56 97 0
-54 56 89 0
-54 97 -99 0
-54 89 -99 0
-54 56 -99 0
54 -97 99 0
54 -89 99 0
54 -56 99 0
-56 -89 -97 99 0
56 89 97 -99 0
-74 -97 100 0
-54 -74 100 0
-54 -97 100 0
74 97 -100 0
54 74 -100 0
54 97 -100 0
74 -100 -101 0
97 -100 -101 0
54 -100 -101 0
-74 100 101 0
-97 100 101 0
-54 100 101 0
-54 -74 -97 101 0
54 74 97 -101 0
-74 -81 102 0
-81 -100 102 0
-74 -100 102 0
74 81 -102 0
81 100 -102 0
74 100 -102 0
81 -102 -103 0
74 -102 -103 0
100 -102 -103 0
-81 102 103 0
-74 102 103 0
-100 102 103 0
-74 -81 -100 103 0
74 81 100 -103 0
-81 -85 104 0
-85 -102 104 0
-81 -102 104 0
81 85 -104 0
85 102 -104 0
81 102 -104 0
-69 85 -104 0
-69 81 -104 0
-69 102 -104 0
69 -85 104 0
69 -81 104 0
69 -102 104 0
69 -81 -85 -102 0
-69 81 85 102 0
-73 85 0
-73 104 0
73 -85 -104 0
-79 -85 -104 0
-79 85 104 0
79 -85 104 0
79 85 -104 0
-68 -90 0
-59 -90 0
59 68 90 0
59 68 -98 0
-59 -68 -98 0
59 -68 98 0
-59 68 98 0
-75 90 0
-57 -75 0
57 75 -90 0
57 -82 -90 0
-57 -82 90 0
57 82 90 0
-57 82 -90 0
75 -86 0
-55 -86 0
55 -75 86 0
55 -75 -105 0
-55 75 -105 0
55 75 105 0
-55 -75 105 0
86 -106 0
-99 -106 0
-86 99 106 0
-86 99 -107 0
86 -99 -107 0
86 99 107 0
-86 -99 107 0
106 -110 0
-101 -110 0
101 -106 110 0
101 -106 -112 0
-101 106 -112 0
101 106 112 0
-101 -106 112 0
110 -113 0
-103 -113 0
103 -110 113 0
103 -110 -114 0
-103 110 -114 0
103 110 114 0
-103 -110 114 0
113 -115 0
-69 -115 0
69 -113 115 0
69 -113 -116 0
-69 113 -116 0
69 113 116 0
-69 -113 116 0
115 -117 0
-79 -117 0
79 -115 117 0
79 -115 -118 0
-79 115 -118 0
79 115 118 0
-79 -115 118 0
117 -119 0
-73 -119 0
73 -117 119 0
73 -117 -120 0
-73 117 -120 0
73 117 120 0
-73 -117 120 0
-109 -121 0
109 121 0
-53 -111 0
53 111 0
-50 -52 0
50 52 0
-48 -49 0
48 49 0
-45 -47 0
45 47 0
-43 -44 0
43 44 0
-42 111 0
42 -111 0
-41 -111 0
41 111 0
40 -52 0
40 -42 -52 0
40 -42 0
-40 42 52 0
-39 -40 52 0
-39 -40 42 0
39 40 -52 0
39 40 0
39 40 -42 0
39 -42 -52 0
38 -49 -109 0
38 -40 -49 0
38 -40 -109 0
-38 49 109 0
-38 40 49 0
-38 40 109 0
-37 -38 49 0
-37 -38 109 0
-37 -38 40 0
37 38 -49 0
37 38 -109 0
37 38 -40 0
37 -40 -49 -109 0
-37 40 49 109 0
36 -47 -111 0
36 -38 -47 0
36 -38 -111 0
-36 47 111 0
-36 38 47 0
-36 38 111 0
-35 -36 47 0
-35 -36 111 0
-35 -36 38 0
35 36 -47 0
35 36 -111 0
35 36 -38 0
35 -38 -47 -111 0
-35 38 47 111 0
34 -44 -52 0
34 -36 -44 0
34 -36 -52 0
-34 44 52 0
-34 36 44 0
-34 36 52 0
-33 -34 44 0
-33 -34 52 0
-33 -34 36 0
33 34 -44 0
33 34 -52 0
33 34 -36 0
33 -36 -44 -52 0
-33 36 44 52 0
-32 49 0
-32 34 0
32 -34 -49 0
-31 -34 -49 0
-31 34 49 0
31 34 -49 0
31 -34 49 0
-30 47 0
-30 32 0
30 -32 -47 0
-29 -32 -47 0
-29 32 47 0
29 32 -47 0
29 -32 47 0
-28 44 0
-28 30 0
28 -30 -44 0
-27 -30 -44 0
-27 30 44 0
27 30 -44 0
27 -30 44 0
-26 39 0
26 -39 0
-25 -39 0
25 39 0
24 -37 0
24 -26 -37 0
24 -26 0
-24 26 37 0
-23 -24 37 0
-23 -24 26 0
23 24 -37 0
23 24 0
23 24 -26 0
23 -26 -37 0
22 -35 -109 0
22 -24 -35 0
22 -24 -109 0
-22 35 109 0
-22 24 35 0
-22 24 109 0
-21 -22 35 0
-21 -22 109 0
-21 -22 24 0
21 22 -35 0
21 22 -109 0
21 22 -24 0
21 -24 -35 -109 0
-21 24 35 109 0
20 -33 -111 0
20 -22 -33 0
20 -22 -111 0
-20 33 111 0
-20 22 33 0
-20 22 111 0
-19 -20 33 0
-19 -20 111 0
-19 -20 22 0
19 20 -33 0
19 20 -111 0
19 20 -22 0
19 -22 -33 -111 0
-19 22 33 111 0
18 -31 -52 0
18 -20 -31 0
18 -20 -52 0
-18 31 52 0
-18 20 31 0
-18 20 52 0
-17 -18 31 0
-17 -18 52 0
-17 -18 20 0
17 18 -31 0
17 18 -52 0
17 18 -20 0
17 -20 -31 -52 0
-17 20 31 52 0
16 -29 -49 0
16 -18 -29 0
16 -18 -49 0
-16 29 49 0
-16 18 29 0
-16 18 49 0
-15 -16 29 0
-15 -16 49 0
-15 -16 18 0
15 16 -29 0
15 16 -49 0
15 16 -18 0
15 -18 -29 -49 0
-15 18 29 49 0
14 -27 -47 0
14 -16 -27 0
14 -16 -47 0
-14 27 47 0
-14 16 27 0
-14 16 47 0
-13 -14 27 0
-13 -14 47 0
-13 -14 16 0
13 14 -27 0
13 14 -47 0
13 14 -16 0
13 -16 -27 -47 0
-13 16 27 47 0
12 -28 -44 0
12 -14 -28 0
12 -14 -44 0
-12 28 44 0
-12 14 28 0
-12 14 44 0
-11 -12 28 0
-11 -12 44 0
-11 -12 14 0
11 12 -28 0
11 12 -44 0
11 12 -14 0
11 -14 -28 -44 0
-11 14 28 44 0
-77 -109 0
77 109 0
-41 -96 0
41 96 0
-25 -80 0
25 80 0
-10 -23 0
10 23 0
-21 -108 0
21 108 0
-19 -51 0
19 51 0
-17 -46 0
17 46 0
-9 -15 0
9 15 0
-8 -13 0
8 13 0
-7 -11 0
7 11 0
-6 -12 0
6 12 0
-5 68 0
-5 109 0
5 -68 -109 0
-68 -109 0
68 109 0
4 -41 -59 0
4 -5 -59 0
4 -5 -41 0
-4 41 59 0
-4 5 59 0
-4 5 41 0
4 -59 0
4 -41 0
4 -5 0
-5 -41 -59 0
3 -25 -57 0
3 -4 -57 0
3 -4 -25 0
-3 25 57 0
-3 4 57 0
-3 4 25 0
-3 57 0
-3 25 0
-3 4 0
4 25 57 0
2 -23 -55 0
2 -3 -55 0
2 -3 -23 0
-2 23 55 0
-2 3 55 0
-2 3 23 0
2 -55 0
2 -23 0
2 -3 0
-3 -23 -55 0
1 -21 -99 0
1 -2 -99 0
1 -2 -21 0
-1 21 99 0
-1 2 99 0
-1 2 21 0
-1 99 0
-1 21 0
-1 2 0
2 21 99 0
-19 94 -101 0
-1 94 -101 0
-1 -19 94 0
19 -94 101 0
1 -94 101 0
1 19 -94 0
94 -101 0
-19 94 0
-1 94 0
-1 -19 -101 0
-17 83 -103 0
83 -94 -103 0
-17 83 -94 0
17 -83 103 0
-83 94 103 0
17 -83 94 0
83 -103 0
-17 83 0
83 -94 0
-17 -94 -103 0
-15 -69 91 0
-69 -83 91 0
-15 -83 91 0
15 69 -91 0
69 83 -91 0
15 83 -91 0
-69 91 0
-15 91 0
-83 91 0
-15 -69 -83 0
-13 70 -79 0
70 -79 -91 0
-13 70 -91 0
13 -70 79 0
-70 79 91 0
13 -70 91 0
70 -79 0
-13 70 0
70 -91 0
-13 -79 -91 0
-11 65 -73 0
65 -70 -73 0
-11 65 -70 0
11 -65 73 0
-65 70 73 0
11 -65 70 0
65 -73 0
-11 65 0
65 -70 0
-11 -70 -73 0
-12 -65 0
-12 65 0
12 -65 0
